%company_type = A;

% The minimum earnings to obtain.
budget = 500;
minimum_earnings = 1000;

% Co2 related constraints
previous_year_co2 = 1000;
Products = {Box, Recicled_Box};

product_costs = [5, 10];
product_selling_prices = [20, 25];
co2_emissions = [8, 1.5];
% an already recicled material is less reciclable than a non recicled one
% optional parameter (default = [])
product_reciclable_compositions = [0.8, 0.5];
% times_to_produce = [];
% minimum_number_of_products_to_make = [];
% raw_materials_of_products = [];

% 
Machinery = {M1, M2, M3};
m_yearly_uses = [1000, 800, 700];
m_energy_per_hours = [15.01, 13.01, 20.7];
m_water_per_hours = [200, 230, 210];

% Should be <= sum(m_yearly_uses)
max_hour_machine_usage = 1500;

% 
